c
c
c
c
c
7 28
0 0 -1
0 1 26
0 2 20
0 3 28
0 4 28
0 5 7
0 6 8
1 1 -1
1 2 23
1 3 25
1 4 27
1 5 28
1 6 10
2 2 -1
2 3 12
2 4 27
2 5 13
2 6 24
3 3 -1
3 4 21
3 5 7
3 6 3
4 4 -1
4 5 15
4 6 16
5 5 -1
5 6 8
6 6 -1
